Instance name: /mnt/c/Users/ORG/CLionProjects/uMV-FSTSP/Murray_Chu_2015_test_data/FSTSP/FSTSP_10_customer_problems/20140810T123437v1

drone speed: 0.2 miles/minute
uav non-eligible customer: 10 
Printing number of nodes: 11

Gurobi Optimizer version 11.0.0 build v11.0.0rc2 (linux64 - "Ubuntu 22.04.3 LTS")

CPU model: 13th Gen Intel(R) Core(TM) i5-13500, instruction set [SSE2|AVX|AVX2]
Thread count: 10 physical cores, 20 logical processors, using up to 20 threads

Optimize a model with 44485 rows, 1957 columns and 1837894 nonzeros
Model fingerprint: 0x571b8a22
Variable types: 11 continuous, 1946 integer (1814 binary)
Coefficient statistics:
  Matrix range     [8e-01, 3e+01]
  Objective range  [8e-01, 2e+01]
  Bounds range     [1e+00, 1e+00]
  RHS range        [1e+00, 9e+00]
Found heuristic solution: objective 152.8140223
Presolve removed 33539 rows and 1134 columns
Presolve time: 3.26s
Presolved: 10946 rows, 823 columns, 319882 nonzeros
Variable types: 8 continuous, 815 integer (815 binary)
Found heuristic solution: objective 139.6976015
Root relaxation presolved: 10946 rows, 823 columns, 319882 nonzeros


Root relaxation: objective 5.366745e+01, 891 iterations, 0.17 seconds (0.36 work units)

    Nodes    |    Current Node    |     Objective Bounds      |     Work
 Expl Unexpl |  Obj  Depth IntInf | Incumbent    BestBd   Gap | It/Node Time

     0     0   53.66745    0   76  139.69760   53.66745  61.6%     -    3s
H    0     0                     132.3938777   53.66745  59.5%     -    3s
H    0     0                      73.7563894   53.66745  27.2%     -    3s
H    0     0                      57.4455299   53.66745  6.58%     -    3s
     0     0   54.70093    0  136   57.44553   54.70093  4.78%     -    3s
     0     0   54.71934    0  132   57.44553   54.71934  4.75%     -    3s
     0     0   55.04517    0  130   57.44553   55.04517  4.18%     -    4s
     0     0   55.06746    0  145   57.44553   55.06746  4.14%     -    4s
     0     0   55.07731    0  136   57.44553   55.07731  4.12%     -    4s
     0     0   56.11349    0  128   57.44553   56.11349  2.32%     -    4s
     0     0   56.11349    0   79   57.44553   56.11349  2.32%     -    5s
     0     0   56.11349    0  132   57.44553   56.11349  2.32%     -    5s
     0     0   56.11349    0  138   57.44553   56.11349  2.32%     -    5s
     0     0   56.11349    0  126   57.44553   56.11349  2.32%     -    5s
     0     0   56.11349    0  132   57.44553   56.11349  2.32%     -    5s
     0     0   56.11478    0  132   57.44553   56.11478  2.32%     -    5s
     0     0   56.25000    0  135   57.44553   56.25000  2.08%     -    5s
     0     0   56.38497    0  116   57.44553   56.38497  1.85%     -    5s
     0     0   56.38497    0  116   57.44553   56.38497  1.85%     -    5s
     0     0   56.42571    0  110   57.44553   56.42571  1.78%     -    5s
     0     0   56.42571    0  109   57.44553   56.42571  1.78%     -    5s
     0     0   56.44058    0  138   57.44553   56.44058  1.75%     -    6s
     0     0   56.44376    0  140   57.44553   56.44376  1.74%     -    6s
     0     0   56.44376    0  146   57.44553   56.44376  1.74%     -    6s
     0     0   56.44505    0  151   57.44553   56.44505  1.74%     -    6s
     0     0   56.44505    0  140   57.44553   56.44505  1.74%     -    6s
     0     0   56.44957    0  144   57.44553   56.44957  1.73%     -    6s
     0     0   56.44957    0  142   57.44553   56.44957  1.73%     -    6s
     0     0   56.44957    0  144   57.44553   56.44957  1.73%     -    6s
     0     0   56.46030    0  140   57.44553   56.46030  1.72%     -    6s
     0     0   56.46365    0  134   57.44553   56.46365  1.71%     -    6s
     0     0   56.46365    0  134   57.44553   56.46365  1.71%     -    6s
     0     0   56.46595    0  133   57.44553   56.46595  1.71%     -    7s
     0     0   56.63399    0  139   57.44553   56.63399  1.41%     -    7s
     0     0   56.63399    0  141   57.44553   56.63399  1.41%     -    7s
     0     0   56.92453    0  141   57.44553   56.92453  0.91%     -    7s
     0     0   56.92453    0  147   57.44553   56.92453  0.91%     -    7s
     0     0   57.06621    0  143   57.44553   57.06621  0.66%     -    7s
     0     0   57.44553    0  142   57.44553   57.44553  0.00%     -    7s

Cutting planes:
  Gomory: 6
  Cover: 5
  Clique: 5
  MIR: 18
  Zero half: 13
  RLT: 39

Explored 1 nodes (4023 simplex iterations) in 7.34 seconds (10.19 work units)
Thread count was 20 (of 20 available processors)

Solution count 6: 57.4455 57.686 73.7564 ... 152.814

Optimal solution found (tolerance 1.00e-04)
Best objective 5.744552991126e+01, best bound 5.744552991126e+01, gap 0.0000%
Truck arcs: 
0 6 3.60506
1 3 3.93636
2 4 4.55136
3 10 15.9496
4 8 1.94864
5 7 0.777831
6 5 0.955922
7 1 7.04774
8 11 5.25872
9 2 6.13892
10 9 7.2754
Theta:
Drone arcs:
Gamma:
Sigma:
Sigma_1 = 0
Sigma_2 = -0
Sigma_3 = 0
Sigma_4 = 0
Sigma_5 = 0
Sigma_6 = 0
Sigma_7 = 0
Sigma_8 = -0
Sigma_9 = -0
Sigma_10 = 0
Sigma_11 = 0
Objective: 57.4455
Number of sorties: 0
